c status 8 1469387116905
c status 3 1469387116906
s td 10 3 21
b 1 1 12 14
b 2 20 19 14
b 3 18 17 14
b 4 16 15 14
b 5 2 13 14
b 6 3 21 14
b 7 10 11 14
b 8 8 9 14
b 9 6 7 14
b 10 4 5 14
1 2
1 10
10 9
10 8
8 7
8 6
6 5
6 4
4 3
